58	12	4	39	
9	13	13	11

0	0	0	0	0	0	4	1	2	3	4
1	0	4	0	0	3	2	5	6
2	4	1	6	7	8	1	5
3	0	5	2	0	8	1	6
4	5	5	7	2	8	2	8	9
5	3	10	0	4	6	3	7	8	9
6	7	1	8	7	6	1	7
7	0	0	2	0	8	1	10
8	7	10	2	8	4	1	11
9	5	10	9	7	3	1	11
10	0	5	7	3	4	1	11
11	0	0	0	0	0	0
